(set-info :status unknown)
(declare-fun %Y () (_ BitVec 23))
(declare-fun %X () (_ BitVec 23))
(assert
 (let (($x2508 (and (distinct (bvudiv ((_ zero_extend 23) %X) ((_ zero_extend 23) %Y)) ((_ zero_extend 23) (bvudiv %X %Y))) true)))
 (and (and (distinct ((_ zero_extend 23) %Y) (_ bv0 46)) true) $x2508)))
(check-sat)
